7
714197,6169877-719104,6173159-719162,6180836-722462,6177770-723050,6178505-724312,6179850-677908,6150220-604134,6229591-569239,6227022
714000,6175858-720415,6176264-726755,6174369-729376,6171380-677908,6150220-609023,6077163-538181,6086484-522714,6075103-527858,6099834
710831,6168718-713038,6174563-711357,6175122-662179,6199594-677908,6150220-557926,6181752-550967,6189326-528913,6152557-524269,6122271
-677908,6150220-588257,6139249-585053,6140355
680041,6165335-665308,6126823-677908,6150220-468578,6147060-465029,6147733-460950,6153723-466076,6153323-507721,6199180
712256,6183711-718638,6205725-720134,6210199-711815,6208837-677908,6150220-559318,6372820-526981,6257531-500074,6269745
-677908,6150220
